0	439	460	0	200
1	114	94	0	200
2	295	199	0	200
3	11	208	0	200
4	437	287	0	200
5	312	442	0	200
6	217	126	0	200
7	102	139	0	200
8	225	465	0	200
9	135	347	0	200
10	163	255	0	200
11	354	5	0	200
12	104	298	0	200
13	123	122	0	200
14	101	384	0	200
15	102	442	0	200
16	358	180	0	200
17	455	39	0	200
18	400	58	0	200
19	132	120	0	200
20	170	178	0	200
21	212	206	0	200
22	13	380	0	200
23	193	92	0	200
24	243	434	0	200
